(declare-const a Real)
(declare-const b Real)
(declare-const c Real)
(assert (= (* a b c) 1))
(assert (> a 0))
(assert (> b 0))
(assert (> c 0))
(assert (not (<= (+ (* -2703048 (pow b 4)) (* -2085576 (pow a 4)) (* 832464 (pow (+ (* (/ 1 2) a) (* (/ 1 2) b)) 4)) (* -5308416 (pow a (pow 3 -1)) (pow b (/ 11 3))) (* -2654208 (pow a (/ 10 3)) (pow b (/ 2 3))) (* 1693151609687740514304 (pow a 3) (pow b 3) (pow (+ (* 2687712 b) (* 9231072 a)) -2))) 0)))
(check-sat)
(get-model)
(exit)